NAME : eil21-2
COMMENT : 21-city problem (Christofides/Eilon)
TYPE : CTSP
DIMENSION : 21
SALESMEN : 2
EDGE_WEIGHT_TYPE : EUC_2D
NODE_COORD_SECTION
1 42 41
2 32 22
3 30 40
4 25 32
5 27 23
6 31 32
7 58 48
8 49 49
9 52 33
10 52 41
11 51 31
12 40 30
13 37 52
14 42 50
15 37 48
16 38 46
17 38 28
18 48 28
19 45 35
20 43 25
21 38 35
CTSP_SET_SECTION
1 2 3 4 5 6 -1
2 7 8 9 10 11 -1
DEPOT_SECTION
1
-1
EOF
